
Gurobi 9.1.2 (win64) logging started Tue Dec  7 13:53:45 2021

Gurobi Optimizer version 9.1.2 build v9.1.2rc0 (win64)
Thread count: 8 physical cores, 8 logical processors, using up to 8 threads
Optimize a model with 1 rows, 262 columns and 261 nonzeros
Model fingerprint: 0x58db010d
Variable types: 1 continuous, 261 integer (261 binary)
Coefficient statistics:
  Matrix range     [1e+00, 1e+01]
  Objective range  [1e+00, 1e+00]
  Bounds range     [2e+01, 2e+01]
  RHS range        [1e+01, 1e+01]
Presolve time: 0.00s
Presolved: 1 rows, 262 columns, 261 nonzeros
Variable types: 1 continuous, 261 integer (261 binary)

Root simplex log...

Iteration    Objective       Primal Inf.    Dual Inf.      Time
       0   -2.1950801e+01   9.718960e-02   0.000000e+00     15s
       3   -2.1950801e+01   0.000000e+00   0.000000e+00     15s

Root relaxation: objective -2.195080e+01, 3 iterations, 0.00 seconds

    Nodes    |    Current Node    |     Objective Bounds      |     Work
 Expl Unexpl |  Obj  Depth IntInf | Incumbent    BestBd   Gap | It/Node Time

     0     0  -15.52537    0    3          -  -15.52537      -     -   16s
H    0     0                       0.9502817  -15.52537  1734%     -   16s
H    0     0                       0.9459854  -15.52537  1741%     -   19s
     0     0  -12.57763    0    7    0.94599  -12.57763  1430%     -   19s
     0     0  -12.57763    0    7    0.94599  -12.57763  1430%     -   21s
H    0     0                       0.8668778  -12.57763  1551%     -   22s
     0     0  -11.08133    0    8    0.86688  -11.08133  1378%     -   22s
     0     0  -10.59635    0    9    0.86688  -10.59635  1322%     -   22s
     0     0  -10.57182    0    8    0.86688  -10.57182  1320%     -   22s
     0     0  -10.56729    0    9    0.86688  -10.56729  1319%     -   22s
     0     0  -10.50803    0   10    0.86688  -10.50803  1312%     -   22s
     0     0  -10.44583    0    9    0.86688  -10.44583  1305%     -   22s
     0     0  -10.42007    0    9    0.86688  -10.42007  1302%     -   22s
     0     0  -10.38104    0    9    0.86688  -10.38104  1298%     -   22s
     0     0  -10.38022    0    9    0.86688  -10.38022  1297%     -   22s
     0     0   -9.89938    0    8    0.86688   -9.89938  1242%     -   22s
     0     0   -9.87168    0   10    0.86688   -9.87168  1239%     -   23s
     0     0   -9.86411    0   10    0.86688   -9.86411  1238%     -   23s
     0     0   -9.82585    0   12    0.86688   -9.82585  1233%     -   23s
     0     0   -9.82025    0   10    0.86688   -9.82025  1233%     -   23s
     0     0   -9.82025    0    9    0.86688   -9.82025  1233%     -   23s
     0     0   -9.82025    0   11    0.86688   -9.82025  1233%     -   24s
     0     0   -9.81590    0   10    0.86688   -9.81590  1232%     -   24s
     0     0   -9.78625    0   11    0.86688   -9.78625  1229%     -   24s
     0     0   -9.78594    0   11    0.86688   -9.78594  1229%     -   24s
     0     0   -9.72062    0   11    0.86688   -9.72062  1221%     -   24s
     0     0   -9.70766    0   11    0.86688   -9.70766  1220%     -   24s
     0     0   -9.70742    0   11    0.86688   -9.70742  1220%     -   24s
     0     0   -9.49417    0   14    0.86688   -9.49417  1195%     -   24s
     0     0   -9.49357    0   14    0.86688   -9.49357  1195%     -   24s
     0     0   -9.42675    0   14    0.86688   -9.42675  1187%     -   24s
     0     0   -9.40569    0   12    0.86688   -9.40569  1185%     -   24s
     0     0   -9.40403    0   13    0.86688   -9.40403  1185%     -   24s
     0     0   -9.40397    0   13    0.86688   -9.40397  1185%     -   24s
     0     0   -9.38544    0   12    0.86688   -9.38544  1183%     -   24s
     0     0   -9.38239    0   12    0.86688   -9.38239  1182%     -   24s
     0     0   -9.38218    0   12    0.86688   -9.38218  1182%     -   24s
     0     0   -9.36344    0   12    0.86688   -9.36344  1180%     -   24s
     0     0   -9.35985    0   12    0.86688   -9.35985  1180%     -   24s
     0     0   -9.35976    0   12    0.86688   -9.35976  1180%     -   24s
     0     0   -9.35180    0   12    0.86688   -9.35180  1179%     -   24s
     0     0   -9.32501    0   11    0.86688   -9.32501  1176%     -   24s
     0     0   -9.32293    0   12    0.86688   -9.32293  1175%     -   24s
     0     0   -9.32216    0   13    0.86688   -9.32216  1175%     -   24s
     0     0   -9.32118    0   13    0.86688   -9.32118  1175%     -   24s
     0     2   -9.32118    0   13    0.86688   -9.32118  1175%     -   24s

Cutting planes:
  MIR: 15
  Lazy constraints: 4

Explored 116 nodes (750 simplex iterations) in 24.50 seconds
Thread count was 8 (of 8 available processors)

Solution count 3: 0.866878 0.945985 0.950282 

Optimal solution found (tolerance 1.00e-04)
Best objective 8.668778141508e-01, best bound 8.668778141508e-01, gap 0.0000%

User-callback calls 582, time in user-callback 27.78 sec
